c --- [ banner ] -------------------------------------------------------------
c 
c CaDiCaL SAT Solver
c Copyright (c) 2016-2023 A. Biere, M. Fleury, N. Froleyks, K. Fazekas, F. Pollitt
c 
c Version 1.9.5
c g++ (Ubuntu 11.4.0-1ubuntu1~22.04) 11.4.0 -Wall -Wextra -O3 -DNDEBUG -static
c Thu Mar 7 06:16:21 CET 2024 Linux pc101447 6.5.0-17-generic x86_64
c 
c --- [ limit ] --------------------------------------------------------------
c 
c setting time limit to 3600 seconds real time (due to '-t 3600')
c 
c --- [ parsing input ] ------------------------------------------------------
c 
c reading DIMACS file from '/home/oliveras/SAT-comp-2023//e51a98d78f61103e0672579e87cfd7e5-satcoin-genesis-UNSAT-11400.cnf'
c opening file to read '/home/oliveras/SAT-comp-2023//e51a98d78f61103e0672579e87cfd7e5-satcoin-genesis-UNSAT-11400.cnf'
c found 'p cnf 134781 648806' header
c parsed 648806 clauses in 0.38 seconds process time
c 
c --- [ options ] ------------------------------------------------------------
c 
c   --seed=1                       (different from default '0')
c 
c --- [ solving ] ------------------------------------------------------------
c 
c time measured in process time since initialization
c 
c  seconds  reductions  redundant  irredundant
c         MB    restarts       trail       variables
c          level   conflicts       glue          remaining
c 
c *  0.38 89  0 0   0    0    0  0% 0 648661 125485 93%
c {  0.45 102  0 0   0    0    0  0% 0 648661 125485 93%
c i  0.45 102  1 0   0    1    0  0% 0 648661 125475 93%
c -  0.60 103 735 1  46  302  287  3% 11 647021 125475 93%
c }  0.64 104 457 1  85 1000  932  3% 12 647021 125475 93%
c [  0.64 104  0 1  85 1000  932  0% 0 647021 125475 93%
c O  0.76 107 2117 1  85 1003  934 64% 14 647021 125475 93%
c - 18.00 144 26 2  85 1388  872 88% 9 647021 125475 93%
c ] 72.99 144 12 2  86 3001 1104 77% 8 647021 125475 93%
c { 72.99 144 457 2  86 3001 1104  3% 12 647021 125475 93%
c F 73.00 144 457 2  88 3005 1108  4% 12 647021 125475 93%
c - 73.14 144 454 3  91 3017  795  4% 12 647021 125475 93%
c s 73.68 158 348 3 239 4740 2347  4% 14 646768 125475 93%
c v 74.72 158 348 3 239 4740 2347  4% 14 642693 125475 93%
c w 74.92 158 348 3 239 4740 2345  4% 14 642693 125475 93%
c t 74.94 158 348 3 239 4740 2341  4% 14 642691 125143 93%
c e 75.86 160 348 3 239 4740 1208  4% 14 553879 82880 61%
c s 75.97 164 348 3 239 4740 1202  4% 14 553855 82880 61%
c e 76.10 164 348 3 239 4740 1199  4% 14 553833 82872 61%
c d 77.02 143 338 3 313 5001 1446 12% 18 553827 82870 61%
c 
c  seconds    reductions   redundant   irredundant
c          MB     restarts        trail        variables
c            level   conflicts        glue          remaining
c 
c 3 77.27 143 338 3 313 5001 15976 12% 18 553827 82870 61%
c 3 77.31 143 338 3 313 5001 20574 12% 18 553827 82870 61%
c d 77.43 143 338 3 313 5001 20376 12% 18 553827 82853 61%
c 2 77.47 143 338 3 313 5001 20375 12% 18 553825 82836 61%
c p 77.53 143 338 3 313 5001 25413 12% 18 553825 82809 61%
c - 77.86 165 333 4 355 5191 3802 10% 20 553316 82809 61%
c # 78.64 165 315 4 518 6006 4581  8% 24 553316 82809 61%
c } 79.54 165 299 4 667 7003 5497  7% 28 553316 82809 61%
c [ 79.54 165 12 4 667 7003 5497 125% 8 553316 82809 61%
c - 95.88 165 18 5 668 7806 5407 111% 9 553316 82809 61%
c I 153.06 165 14 5 669 10007 5922 99% 8 553316 82809 61%
c - 179.61 165 13 6 670 10944 4746 97% 9 553316 82809 61%
c - 260.47 165 12 7 672 14604 5425 87% 8 553316 82809 61%
c d 269.88 165 11 7 672 15001 5516 87% 8 553194 82761 61%
c 3 269.98 165 11 7 672 15001 17397 87% 8 553194 82761 61%
c 2 270.13 165 11 7 672 15001 22062 87% 8 553191 82759 61%
c p 270.17 165 11 7 672 15001 26814 87% 8 553191 82759 61%
c ] 270.21 165 11 7 672 15003 26816 87% 8 553191 82759 61%
c { 270.21 165 299 7 672 15003 26816  7% 28 553191 82759 61%
c B 270.24 165 299 7 674 15008 26821  8% 28 553191 82759 61%
c 
c  seconds     reductions    redundant   irredundant
c           MB     restarts         trail        variables
c             level    conflicts        glue          remaining
c 
c s 271.05 165 291 7 785 15702 26198  7% 29 553006 82759 61%
c v 272.05 165 291 7 785 15702 26198  7% 29 549254 82759 61%
c w 272.33 165 291 7 785 15702 26157  7% 29 549254 82759 61%
c t 272.35 165 291 7 785 15702 26148  7% 29 549247 82759 61%
c e 272.51 165 291 7 785 15702 25857  7% 29 549209 82725 61%
c s 272.52 165 291 7 785 15702 25742  7% 29 549206 82725 61%
c e 272.61 165 291 7 785 15702 25735  7% 29 549200 82723 61%
c - 275.01 166 276 8 1082 18787 11104  7% 33 549200 82723 61%
c W 279.76 166 268 8 1362 21009 13209  7% 36 549200 82723 61%
c - 282.41 166 270 9 1594 23484 13121  8% 37 549200 82723 61%
c F 303.55 166 265 9 2421 28010 17507 14% 59 549200 82723 61%
c - 309.79 197 265 10 2597 28703 15298 15% 65 549200 82723 61%
c d 321.85 197 265 10 2921 30001 16594 18% 75 549200 82722 61%
c 3 321.93 197 265 10 2921 30001 21334 18% 75 549200 82722 61%
c d 322.07 197 265 10 2921 30001 27148 18% 75 549200 82721 61%
c 2 322.12 197 265 10 2921 30001 27148 18% 75 549200 82720 61%
c p 322.16 197 265 10 2921 30001 31481 18% 75 549200 82718 61%
c } 331.47 197 265 10 3171 31003 32483 20% 83 549200 82718 61%
c [ 331.47 197 11 10 3171 31003 32483 87% 8 549200 82718 61%
c s 342.75 197 38 10 3171 32089 32906 83% 9 549188 82718 61%
c 
c  seconds    reductions      redundant  irredundant
c           MB     restarts          trail       variables
c            level      conflicts        glue         remaining
c 
c v 343.64 197 38 10 3171 32089 32906 83% 9 549104 82718 61%
c w 343.92 197 38 10 3171 32089 32869 83% 9 549104 82717 61%
c t 343.93 197 38 10 3171 32089 32868 83% 9 549104 82717 61%
c e 344.04 197 38 10 3171 32089 32826 83% 9 549070 82703 61%
c s 344.06 197 38 10 3171 32089 32775 83% 9 549063 82703 61%
c e 344.15 197 38 10 3171 32089 32774 83% 9 549061 82702 61%
c - 377.14 197 35 11 3173 34445 20848 77% 10 549061 82702 61%
c B 427.27 197 32 11 3174 36011 21002 78% 9 549061 82702 61%
c - 577.70 168 25 12 3177 40707 16343 83% 9 549061 82702 61%
c i 655.34 168 23 12 3178 43259 16517 84% 9 549061 82699 61%
c W 704.74 168 22 12 3178 45013 16110 85% 8 549013 82699 61%
c i 753.67 168 21 12 3179 46655 16243 85% 8 549013 82698 61%
c - 777.18 168 20 13 3179 47491 15101 86% 8 548981 82698 61%
c i 798.05 168 20 13 3179 48220 15156 86% 8 548981 82692 61%
c i 824.95 168 19 13 3179 49098 15191 86% 8 548981 82691 61%
c i 843.88 168 19 13 3179 49711 15212 87% 8 548981 82690 61%
c i 845.35 168 19 13 3179 49759 15218 87% 8 548981 82684 61%
c i 849.78 168 19 13 3179 49903 15226 87% 8 548981 82677 61%
c i 851.50 168 19 13 3179 49959 15231 87% 8 548981 82667 61%
c i 852.73 168 19 13 3179 49999 15237 87% 8 548981 82647 61%
c 
c  seconds    reductions      redundant  irredundant
c           MB     restarts          trail       variables
c            level      conflicts        glue         remaining
c 
c d 852.86 168 19 13 3179 50001 14309 87% 8 548052 82637 61%
c d 852.90 168 19 13 3179 50001 14208 87% 8 547757 82515 61%
c 3 852.94 168 19 13 3179 50001 21476 87% 8 547757 82515 61%
c d 853.08 168 19 13 3179 50001 22177 87% 8 547753 82505 61%
c 2 853.12 168 19 13 3179 50001 22156 87% 8 547750 82495 61%
c p 853.43 170 19 13 3179 50001 425479 87% 8 547750 82460 61%
c d 853.54 170 19 13 3179 50001 27013 87% 8 547223 82436 61%
c d 853.59 170 19 13 3179 50001 26940 87% 8 547071 82382 61%
c i 853.96 170 19 13 3179 50024 26948 87% 8 547071 82378 61%
c i 854.20 170 19 13 3179 50036 26952 87% 8 547071 82371 61%
c i 854.30 170 19 13 3179 50041 26955 87% 8 547071 82369 61%
c i 854.33 170 19 13 3179 50044 26956 87% 8 547071 82359 61%
c i 854.33 170 19 13 3179 50045 26956 87% 8 547071 82186 61%
c ] 854.37 170 19 13 3179 50047 26956 87% 8 547071 112  0%
c 0 854.37 170 19 13 3179 50047 26956 87% 8 547071 112  0%
c 
c --- [ result ] -------------------------------------------------------------
c 
s UNSATISFIABLE
c 
c --- [ run-time profiling ] -------------------------------------------------
c 
c process time taken by individual solving procedures
c (percentage relative to process time for solving)
c 
c       846.24   99.09% search
c       782.35   91.61% stable
c        61.40    7.19% unstable
c         7.74    0.91% simplify
c         3.51    0.41% vivify
c         2.42    0.28% walk
c         1.45    0.17% elim
c         0.70    0.08% ternary
c         0.50    0.06% subsume
c         0.44    0.05% probe
c         0.38    0.04% parse
c         0.07    0.01% lucky
c   =================================
c       853.99   99.96% solve
c 
c last line shows process time for solving
c (percentage relative to total process time)
c 
c --- [ statistics ] ---------------------------------------------------------
c 
c chronological:              7532        15.05 %  of conflicts
c conflicts:                 50047        58.60    per second
c decisions:                532529       623.58    per second
c eliminated:                42308        31.39 %  of all variables
c fixed:                     83237        61.76 %  of all variables
c learned:                   49060        98.03 %  per conflict
c learned_lits:           18785190       100.00 %  learned literals
c minimized:                     0         0.00 %  learned literals
c shrunken:                7833151        41.70 %  learned literals
c minishrunken:            4307259        22.93 %  learned literals
c otfs:                        309         0.62 %  of conflict
c propagations:         2342705311         2.74 M  per second
c reduced:                   16805        33.58 %  per conflict
c rephased:                      9      5560.78    interval
c restarts:                   3179        15.74    interval
c stabilizing:                   3        58.02 %  of conflicts
c substituted:                 289         0.21 %  of all variables
c subsumed:                  48658         3.38 %  of all clauses
c strengthened:              24733         1.72 %  of all clauses
c ternary:                   54508         0.61 %  of resolved
c trail reuses:                  0         0.00 %  of incremental calls
c vivified:                  16352         1.14 %  of all clauses
c walked:                        2     25023.50    interval
c weakened:                 193208         2.88    average size
c 
c seconds are measured in process time for solving
c 
c --- [ resources ] ----------------------------------------------------------
c 
c total process time since initialization:       854.37    seconds
c total real time since initialization:          854.46    seconds
c maximum resident set size of process:          227.95    MB
c 
c --- [ shutting down ] ------------------------------------------------------
c 
c exit 20
